p cnf 437 1622
c t mc
3 1 0
3 2 0
-1 -2 -3 0
-6 4 0
-6 -5 0
-4 5 6 0
7 -3 0
7 -6 0
3 6 -7 0
7 -4 -8 0
-7 4 -8 0
7 4 8 0
-7 -4 8 0
10 -8 0
10 9 0
8 -9 -10 0
12 -10 0
12 11 0
10 -11 -12 0
-15 -13 0
-15 14 0
13 -14 15 0
17 9 0
17 11 0
-9 -11 -17 0
18 5 0
18 -17 0
-5 17 -18 0
-19 -16 0
-19 18 0
16 -18 19 0
20 15 0
20 19 0
-15 -19 -20 0
21 12 0
21 -20 0
-12 20 -21 0
-23 -6 0
-23 -22 0
6 22 23 0
-24 25 0
24 25 0
-17 -25 -26 0
17 25 -26 0
-17 25 26 0
17 -25 26 0
27 23 0
27 -26 0
-23 26 -27 0
-28 -11 -29 0
28 11 -29 0
-28 11 29 0
28 -11 29 0
31 -30 0
31 -24 0
30 24 -31 0
-32 29 0
-32 31 0
-29 -31 32 0
-33 27 0
-33 -32 0
-27 32 33 0
35 24 0
35 34 0
-24 -34 -35 0
36 -33 0
36 35 0
33 -35 -36 0
37 -10 0
37 -36 0
10 36 -37 0
-38 -37 0
-38 35 0
37 -35 38 0
39 -21 0
39 38 0
21 -38 -39 0
37 6 -40 0
-37 -6 -40 0
37 -6 40 0
-37 6 40 0
-9 16 -41 0
9 -16 -41 0
-9 -16 41 0
9 16 41 0
43 41 0
43 42 0
-41 -42 -43 0
-43 -32 -44 0
43 32 -44 0
-43 32 44 0
43 -32 44 0
-44 -9 -45 0
44 9 -45 0
-44 9 45 0
44 -9 45 0
46 40 0
46 -45 0
-40 45 -46 0
-47 46 0
-47 17 0
-46 -17 47 0
48 -39 0
48 -47 0
39 47 -48 0
-49 -31 0
-49 -23 0
31 23 49 0
51 -50 0
51 5 0
50 -5 -51 0
-52 -49 0
-52 51 0
49 -51 52 0
-30 53 -54 0
30 -53 -54 0
-30 -53 54 0
30 53 54 0
-55 -54 0
-55 16 0
54 -16 55 0
56 17 0
56 16 0
-17 -16 -56 0
57 55 0
57 -56 0
-55 56 -57 0
58 6 0
58 57 0
-6 -57 -58 0
-59 -52 0
-59 -58 0
52 58 59 0
42 -29 -60 0
-42 29 -60 0
42 29 60 0
-42 -29 60 0
-61 -9 -62 0
61 9 -62 0
-61 9 62 0
61 -9 62 0
-62 44 -63 0
62 -44 -63 0
-62 -44 63 0
62 44 63 0
-64 60 0
-64 63 0
-60 -63 64 0
35 64 -65 0
-35 -64 -65 0
35 -64 65 0
-35 64 65 0
-59 65 -66 0
59 -65 -66 0
-59 -65 66 0
59 65 66 0
41 -5 -67 0
-41 5 -67 0
41 5 67 0
-41 -5 67 0
19 67 -68 0
-19 -67 -68 0
19 -67 68 0
-19 67 68 0
-69 16 0
-69 42 0
-16 -42 69 0
70 -68 0
70 69 0
68 -69 -70 0
71 -70 0
71 -24 0
70 24 -71 0
66 71 -72 0
-66 -71 -72 0
66 -71 72 0
-66 71 72 0
48 72 -73 0
-48 -72 -73 0
48 -72 73 0
-48 72 73 0
24 9 -74 0
-24 -9 -74 0
24 -9 74 0
-24 9 74 0
75 -56 0
75 74 0
56 -74 -75 0
-76 -75 0
-76 11 0
75 -11 76 0
6 -43 -77 0
-6 43 -77 0
6 43 77 0
-6 -43 77 0
41 77 -78 0
-41 -77 -78 0
41 -77 78 0
-41 77 78 0
-76 78 -79 0
76 -78 -79 0
-76 -78 79 0
76 78 79 0
80 -79 0
80 52 0
79 -52 -80 0
-80 -7 -81 0
80 7 -81 0
-80 7 81 0
80 -7 81 0
82 73 0
82 81 0
-73 -81 -82 0
-84 -15 0
-84 -83 0
15 83 84 0
-85 6 0
-85 -84 0
-6 84 85 0
86 -85 0
86 51 0
85 -51 -86 0
86 -56 -87 0
-86 56 -87 0
86 56 87 0
-86 -56 87 0
88 55 0
88 -49 0
-55 49 -88 0
89 87 0
89 88 0
-87 -88 -89 0
-90 -10 0
-90 19 0
10 -19 90 0
-91 89 0
-91 -90 0
-89 90 91 0
92 91 0
92 11 0
-91 -11 -92 0
-93 -63 0
-93 -83 0
63 83 93 0
-94 10 0
-94 -93 0
-10 93 94 0
95 -92 0
95 -94 0
92 94 -95 0
-4 -83 -96 0
4 83 -96 0
-4 83 96 0
4 -83 96 0
-8 -96 -97 0
8 96 -97 0
-8 96 97 0
8 -96 97 0
-99 -45 0
-99 98 0
45 -98 99 0
-100 97 0
-100 -99 0
-97 99 100 0
101 60 0
101 26 0
-60 -26 -101 0
88 -101 -102 0
-88 101 -102 0
88 101 102 0
-88 -101 102 0
-100 102 -103 0
100 -102 -103 0
-100 -102 103 0
100 102 103 0
104 74 0
104 -16 0
-74 16 -104 0
105 -19 0
105 104 0
19 -104 -105 0
-106 -105 0
-106 24 0
105 -24 106 0
107 -61 0
107 -5 0
61 5 -107 0
108 -106 0
108 -107 0
106 107 -108 0
109 -103 0
109 108 0
103 -108 -109 0
-40 -7 -110 0
40 7 -110 0
-40 7 110 0
40 -7 110 0
-65 -110 -111 0
65 110 -111 0
-65 110 111 0
65 -110 111 0
112 52 0
112 111 0
-52 -111 -112 0
-113 -7 0
-113 -83 0
7 83 113 0
112 -113 -114 0
-112 113 -114 0
112 113 114 0
-112 -113 114 0
115 -17 0
115 -70 0
17 70 -115 0
116 18 0
116 -31 0
-18 31 -116 0
-115 -116 -117 0
115 116 -117 0
-115 116 117 0
115 -116 117 0
118 114 0
118 -117 0
-114 117 -118 0
119 42 0
119 31 0
-42 -31 -119 0
120 -1 0
120 42 0
1 -42 -120 0
121 -119 0
121 -120 0
119 120 -121 0
122 121 0
122 34 0
-121 -34 -122 0
-118 122 -123 0
118 -122 -123 0
-118 -122 123 0
118 122 123 0
109 123 -124 0
-109 -123 -124 0
109 -123 124 0
-109 123 124 0
-125 -95 0
-125 -124 0
95 124 125 0
-126 116 0
-126 -4 0
-116 4 126 0
-42 22 -127 0
42 -22 -127 0
-42 -22 127 0
42 22 127 0
-127 -68 -128 0
127 68 -128 0
-127 68 128 0
127 -68 128 0
129 27 0
129 -128 0
-27 128 -129 0
130 126 0
130 129 0
-126 -129 -130 0
131 -22 0
131 -130 0
22 130 -131 0
132 125 0
132 -131 0
-125 131 -132 0
-68 4 -133 0
68 -4 -133 0
-68 -4 133 0
68 4 133 0
-134 -35 0
-134 -25 0
35 25 134 0
-135 2 0
-135 134 0
-2 -134 135 0
136 107 0
136 -135 0
-107 135 -136 0
-137 -133 0
-137 -136 0
133 136 137 0
138 76 0
138 83 0
-76 -83 -138 0
-139 138 0
-139 -127 0
-138 127 139 0
-139 -26 -140 0
139 26 -140 0
-139 26 140 0
139 -26 140 0
141 79 0
141 29 0
-79 -29 -141 0
142 -10 0
142 -56 0
10 56 -142 0
143 141 0
143 -142 0
-141 142 -143 0
-144 143 0
-144 -70 0
-143 70 144 0
-145 -36 0
-145 -112 0
36 112 145 0
-146 -144 0
-146 145 0
144 -145 146 0
147 -20 0
147 104 0
20 -104 -147 0
-146 147 -148 0
146 -147 -148 0
-146 -147 148 0
146 147 148 0
149 -140 0
149 -148 0
140 148 -149 0
150 134 0
150 61 0
-134 -61 -150 0
-151 -16 0
-151 24 0
16 -24 151 0
152 43 0
152 -151 0
-43 151 -152 0
-152 68 -153 0
152 -68 -153 0
-152 -68 153 0
152 68 153 0
-154 150 0
-154 153 0
-150 -153 154 0
155 -25 0
155 12 0
25 -12 -155 0
-154 -155 -156 0
154 155 -156 0
-154 155 156 0
154 -155 156 0
-157 -10 0
-157 -23 0
10 23 157 0
158 -22 0
158 35 0
22 -35 -158 0
-159 -96 0
-159 60 0
96 -60 159 0
-160 -158 0
-160 -159 0
158 159 160 0
-157 160 -161 0
157 -160 -161 0
-157 -160 161 0
157 160 161 0
28 69 -162 0
-28 -69 -162 0
28 -69 162 0
-28 69 162 0
-69 54 -163 0
69 -54 -163 0
-69 -54 163 0
69 54 163 0
-49 163 -164 0
49 -163 -164 0
-49 -163 164 0
49 163 164 0
165 -164 0
165 -58 0
164 58 -165 0
-166 -162 0
-166 165 0
162 -165 166 0
-167 9 0
-167 -29 0
-9 29 167 0
19 -14 -168 0
-19 14 -168 0
19 14 168 0
-19 -14 168 0
169 -168 0
169 60 0
168 -60 -169 0
-170 167 0
-170 -169 0
-167 169 170 0
-171 86 0
-171 -12 0
-86 12 171 0
172 171 0
172 -85 0
-171 85 -172 0
-173 172 0
-173 -116 0
-172 116 173 0
174 173 0
174 -93 0
-173 93 -174 0
-175 -170 0
-175 -174 0
170 174 175 0
166 175 -176 0
-166 -175 -176 0
166 -175 176 0
-166 175 176 0
-177 161 0
-177 -176 0
-161 176 177 0
156 177 -178 0
-156 -177 -178 0
156 -177 178 0
-156 177 178 0
-149 178 -179 0
149 -178 -179 0
-149 -178 179 0
149 178 179 0
11 33 -180 0
-11 -33 -180 0
11 -33 180 0
-11 33 180 0
-181 41 0
-181 4 0
-41 -4 181 0
126 181 -182 0
-126 -181 -182 0
126 -181 182 0
-126 181 182 0
183 128 0
183 -182 0
-128 182 -183 0
-136 133 -184 0
136 -133 -184 0
-136 -133 184 0
136 133 184 0
-185 28 0
-185 -1 0
-28 1 185 0
-186 -5 0
-186 -185 0
5 185 186 0
-187 -184 0
-187 -186 0
184 186 187 0
30 62 -188 0
-30 -62 -188 0
30 -62 188 0
-30 62 188 0
-189 187 0
-189 188 0
-187 -188 189 0
-190 183 0
-190 -189 0
-183 189 190 0
-33 163 -191 0
33 -163 -191 0
-33 -163 191 0
33 163 191 0
-192 -21 0
-192 191 0
21 -191 192 0
-190 192 -193 0
190 -192 -193 0
-190 -192 193 0
190 192 193 0
180 -193 -194 0
-180 193 -194 0
180 193 194 0
-180 -193 194 0
195 179 0
195 -194 0
-179 194 -195 0
-137 195 -196 0
137 -195 -196 0
-137 -195 196 0
137 195 196 0
197 -132 0
197 -196 0
132 196 -197 0
198 186 0
198 9 0
-186 -9 -198 0
20 -126 -199 0
-20 126 -199 0
20 126 199 0
-20 -126 199 0
200 31 0
200 199 0
-31 -199 -200 0
201 -198 0
201 200 0
198 -200 -201 0
-202 105 0
-202 8 0
-105 -8 202 0
203 -202 0
203 135 0
202 -135 -203 0
-204 201 0
-204 -203 0
-201 203 204 0
-205 10 0
-205 2 0
-10 -2 205 0
206 -205 0
206 -70 0
205 70 -206 0
-107 206 -207 0
107 -206 -207 0
-107 -206 207 0
107 206 207 0
208 96 0
208 -84 0
-96 84 -208 0
7 -130 -209 0
-7 130 -209 0
7 130 209 0
-7 -130 209 0
-210 208 0
-210 -209 0
-208 209 210 0
-211 207 0
-211 210 0
-207 -210 211 0
-212 -128 0
-212 7 0
128 -7 212 0
-213 212 0
-213 199 0
-212 -199 213 0
-213 27 -214 0
213 -27 -214 0
-213 -27 214 0
213 27 214 0
-215 -211 0
-215 -214 0
211 214 215 0
216 -204 0
216 215 0
204 -215 -216 0
-197 -216 -217 0
197 216 -217 0
-197 216 217 0
197 -216 217 0
218 -62 0
218 111 0
62 -111 -218 0
220 -17 0
220 -185 0
17 185 -220 0
221 -135 0
221 127 0
135 -127 -221 0
-222 220 0
-222 -221 0
-220 221 222 0
-223 219 0
-223 222 0
-219 -222 223 0
-224 163 0
-224 62 0
-163 -62 224 0
225 224 0
225 -98 0
-224 98 -225 0
-226 223 0
-226 -225 0
-223 225 226 0
-227 -218 0
-227 226 0
218 -226 227 0
-228 -26 0
-228 -113 0
26 113 228 0
229 64 0
229 33 0
-64 -33 -229 0
228 229 -230 0
-228 -229 -230 0
228 -229 230 0
-228 229 230 0
-231 -227 0
-231 -230 0
227 230 231 0
-217 231 -232 0
217 -231 -232 0
-217 -231 232 0
217 231 232 0
233 -82 0
233 232 0
82 -232 -233 0
-234 -70 0
-234 -53 0
70 53 234 0
-205 -234 -235 0
205 234 -235 0
-205 234 235 0
205 -234 235 0
236 -121 0
236 -107 0
121 107 -236 0
-163 173 -237 0
163 -173 -237 0
-163 -173 237 0
163 173 237 0
238 236 0
238 -237 0
-236 237 -238 0
-239 235 0
-239 -238 0
-235 238 239 0
115 78 -240 0
-115 -78 -240 0
115 -78 240 0
-115 78 240 0
-240 159 -241 0
240 -159 -241 0
-240 -159 241 0
240 159 241 0
242 -160 0
242 -45 0
160 45 -242 0
243 32 0
243 -242 0
-32 242 -243 0
-115 243 -244 0
115 -243 -244 0
-115 -243 244 0
115 243 244 0
-241 -244 -245 0
241 244 -245 0
-241 244 245 0
241 -244 245 0
-246 9 0
-246 -2 0
-9 2 246 0
246 200 -247 0
-246 -200 -247 0
246 -200 247 0
-246 200 247 0
-29 -3 -248 0
29 3 -248 0
-29 3 248 0
29 -3 248 0
248 -28 -249 0
-248 28 -249 0
248 28 249 0
-248 -28 249 0
128 249 -250 0
-128 -249 -250 0
128 -249 250 0
-128 249 250 0
-247 -250 -251 0
247 250 -251 0
-247 250 251 0
247 -250 251 0
252 245 0
252 251 0
-245 -251 -252 0
253 -53 0
253 -172 0
53 172 -253 0
-254 28 0
-254 151 0
-28 -151 254 0
-255 -253 0
-255 254 0
253 -254 255 0
256 26 0
256 69 0
-26 -69 -256 0
-257 -256 0
-257 -12 0
256 12 257 0
257 -164 -258 0
-257 164 -258 0
257 164 258 0
-257 -164 258 0
-259 -30 0
-259 152 0
30 -152 259 0
260 259 0
260 -143 0
-259 143 -260 0
-261 -15 0
-261 -260 0
15 260 261 0
262 261 0
262 -247 0
-261 247 -262 0
-263 -258 0
-263 -262 0
258 262 263 0
264 -255 0
264 -263 0
255 263 -264 0
-265 -187 0
-265 139 0
187 -139 265 0
208 13 -266 0
-208 -13 -266 0
208 -13 266 0
-208 13 266 0
-267 266 0
-267 -136 0
-266 136 267 0
268 -267 0
268 200 0
267 -200 -268 0
269 265 0
269 -268 0
-265 268 -269 0
-270 242 0
-270 63 0
-242 -63 270 0
271 -269 0
271 270 0
269 -270 -271 0
272 -22 0
272 -212 0
22 212 -272 0
273 -271 0
273 272 0
271 -272 -273 0
-274 -264 0
-274 -273 0
264 273 274 0
-275 181 0
-275 160 0
-181 -160 275 0
-276 -97 0
-276 -275 0
97 275 276 0
277 -60 0
277 -224 0
60 224 -277 0
278 -277 0
278 42 0
277 -42 -278 0
158 128 -279 0
-158 -128 -279 0
158 -128 279 0
-158 128 279 0
280 -126 0
280 -279 0
126 279 -280 0
-281 -259 0
-281 -57 0
259 57 281 0
282 280 0
282 281 0
-280 -281 -282 0
283 278 0
283 282 0
-278 -282 -283 0
276 -283 -284 0
-276 283 -284 0
276 283 284 0
-276 -283 284 0
285 274 0
285 284 0
-274 -284 -285 0
286 -252 0
286 -285 0
252 285 -286 0
-287 -239 0
-287 -286 0
239 286 287 0
63 -29 -288 0
-63 29 -288 0
63 29 288 0
-63 -29 288 0
289 65 0
289 288 0
-65 -288 -289 0
90 47 -290 0
-90 -47 -290 0
90 -47 290 0
-90 47 290 0
-291 289 0
-291 290 0
-289 -290 291 0
-98 41 -292 0
98 -41 -292 0
-98 -41 292 0
98 41 292 0
293 54 0
293 -43 0
-54 43 -293 0
-294 293 0
-294 -102 0
-293 102 294 0
295 292 0
295 294 0
-292 -294 -295 0
-90 151 -296 0
90 -151 -296 0
-90 -151 296 0
90 151 296 0
-297 5 0
-297 -296 0
-5 296 297 0
-298 199 0
-298 134 0
-199 -134 298 0
299 247 0
299 -298 0
-247 298 -299 0
-300 -23 0
-300 30 0
23 -30 300 0
301 299 0
301 -300 0
-299 300 -301 0
-302 -297 0
-302 -301 0
297 301 302 0
303 295 0
303 302 0
-295 -302 -303 0
304 291 0
304 303 0
-291 -303 -304 0
-305 -115 0
-305 -261 0
115 261 305 0
306 -305 0
306 259 0
305 -259 -306 0
-307 -67 0
-307 -45 0
67 45 307 0
-308 60 0
-308 100 0
-60 -100 308 0
-309 307 0
-309 -308 0
-307 308 309 0
306 -309 -310 0
-306 309 -310 0
306 309 310 0
-306 -309 310 0
-311 61 0
-311 -186 0
-61 186 311 0
-312 -136 0
-312 234 0
136 -234 312 0
-313 312 0
-313 -63 0
-312 63 313 0
-314 313 0
-314 -61 0
-313 61 314 0
315 311 0
315 -314 0
-311 314 -315 0
316 -104 0
316 172 0
104 -172 -316 0
-315 -316 -317 0
315 316 -317 0
-315 316 317 0
315 -316 317 0
318 -310 0
318 317 0
310 -317 -318 0
-151 142 -319 0
151 -142 -319 0
-151 -142 319 0
151 142 319 0
-320 319 0
-320 -275 0
-319 275 320 0
-321 101 0
-321 -93 0
-101 93 321 0
-321 -134 -322 0
321 134 -322 0
-321 134 322 0
321 -134 322 0
-323 320 0
-323 -322 0
-320 322 323 0
318 323 -324 0
-318 -323 -324 0
318 -323 324 0
-318 323 324 0
325 -31 0
325 -26 0
31 26 -325 0
-325 139 -326 0
325 -139 -326 0
-325 -139 326 0
325 139 326 0
-327 -168 0
-327 -250 0
168 250 327 0
328 326 0
328 327 0
-326 -327 -328 0
158 96 -329 0
-158 -96 -329 0
158 -96 329 0
-158 96 329 0
-330 328 0
-330 329 0
-328 -329 330 0
331 -76 0
331 -205 0
76 205 -331 0
11 70 -332 0
-11 -70 -332 0
11 -70 332 0
-11 70 332 0
333 331 0
333 332 0
-331 -332 -333 0
171 198 -334 0
-171 -198 -334 0
171 -198 334 0
-171 198 334 0
-335 -116 0
-335 -334 0
116 334 335 0
336 30 0
336 159 0
-30 -159 -336 0
337 93 0
337 -336 0
-93 336 -337 0
338 35 0
338 86 0
-35 -86 -338 0
337 338 -339 0
-337 -338 -339 0
337 -338 339 0
-337 338 339 0
-340 44 0
-340 -54 0
-44 54 340 0
185 152 -341 0
-185 -152 -341 0
185 -152 341 0
-185 152 341 0
-338 -79 -342 0
338 79 -342 0
-338 79 342 0
338 -79 342 0
341 -342 -343 0
-341 342 -343 0
341 342 343 0
-341 -342 343 0
344 340 0
344 -343 0
-340 343 -344 0
-22 44 -345 0
22 -44 -345 0
-22 -44 345 0
22 44 345 0
346 -30 0
346 17 0
30 -17 -346 0
-20 346 -347 0
20 -346 -347 0
-20 -346 347 0
20 346 347 0
-345 347 -348 0
345 -347 -348 0
-345 -347 348 0
345 347 348 0
-349 -344 0
-349 348 0
344 -348 349 0
350 339 0
350 349 0
-339 -349 -350 0
-335 350 -351 0
335 -350 -351 0
-335 -350 351 0
335 350 351 0
-352 333 0
-352 351 0
-333 -351 352 0
-153 45 -353 0
153 -45 -353 0
-153 -45 353 0
153 45 353 0
116 67 -354 0
-116 -67 -354 0
116 -67 354 0
-116 67 354 0
-355 -353 0
-355 -354 0
353 354 355 0
356 65 0
356 -84 0
-65 84 -356 0
357 356 0
357 250 0
-356 -250 -357 0
-358 -127 0
-358 138 0
127 -138 358 0
-359 -150 0
-359 79 0
150 -79 359 0
359 -11 -360 0
-359 11 -360 0
359 11 360 0
-359 -11 360 0
-11 -34 -361 0
11 34 -361 0
-11 34 361 0
11 -34 361 0
-362 361 0
-362 -14 0
-361 14 362 0
-362 -256 -363 0
362 256 -363 0
-362 256 363 0
362 -256 363 0
364 119 0
364 363 0
-119 -363 -364 0
-365 360 0
-365 364 0
-360 -364 365 0
-366 -257 0
-366 -44 0
257 44 366 0
-367 -12 0
-367 -366 0
12 366 367 0
-367 134 -368 0
367 -134 -368 0
-367 -134 368 0
367 134 368 0
-171 -313 -369 0
171 313 -369 0
-171 313 369 0
171 -313 369 0
370 163 0
370 160 0
-163 -160 -370 0
-371 -163 0
-371 362 0
163 -362 371 0
-372 -370 0
-372 -371 0
370 371 372 0
373 -38 0
373 -212 0
38 212 -373 0
-374 -373 0
-374 -40 0
373 40 374 0
372 -374 -375 0
-372 374 -375 0
372 374 375 0
-372 -374 375 0
-376 -369 0
-376 -375 0
369 375 376 0
-377 35 0
-377 376 0
-35 -376 377 0
378 368 0
378 -377 0
-368 377 -378 0
379 365 0
379 -378 0
-365 378 -379 0
358 -379 -380 0
-358 379 -380 0
358 379 380 0
-358 -379 380 0
381 -366 0
381 -104 0
366 104 -381 0
-380 381 -382 0
380 -381 -382 0
-380 -381 382 0
380 381 382 0
383 -79 0
383 181 0
79 -181 -383 0
-382 383 -384 0
382 -383 -384 0
-382 -383 384 0
382 383 384 0
-357 384 -385 0
357 -384 -385 0
-357 -384 385 0
357 384 385 0
-355 385 -386 0
355 -385 -386 0
-355 -385 386 0
355 385 386 0
-387 352 0
-387 -386 0
-352 386 387 0
-388 157 0
-388 -16 0
-157 16 388 0
-389 387 0
-389 388 0
-387 -388 389 0
-390 330 0
-390 389 0
-330 -389 390 0
-391 88 0
-391 -334 0
-88 334 391 0
-392 26 0
-392 64 0
-26 -64 392 0
-393 -392 0
-393 -136 0
392 136 393 0
-394 -393 0
-394 24 0
393 -24 394 0
-395 391 0
-395 -394 0
-391 394 395 0
1 -77 -396 0
-1 77 -396 0
1 77 396 0
-1 -77 396 0
397 361 0
397 256 0
-361 -256 -397 0
-398 -249 0
-398 397 0
249 -397 398 0
-399 -105 0
-399 -398 0
105 398 399 0
400 205 0
400 -76 0
-205 76 -400 0
401 293 0
401 -31 0
-293 31 -401 0
62 -112 -402 0
-62 112 -402 0
62 112 402 0
-62 -112 402 0
403 -401 0
403 402 0
401 -402 -403 0
-404 400 0
-404 403 0
-400 -403 404 0
399 404 -405 0
-399 -404 -405 0
399 -404 405 0
-399 404 405 0
-396 -405 -406 0
396 405 -406 0
-396 405 406 0
396 -405 406 0
-395 -406 -407 0
395 406 -407 0
-395 406 407 0
395 -406 407 0
-390 407 -408 0
390 -407 -408 0
-390 -407 408 0
390 407 408 0
-324 408 -409 0
324 -408 -409 0
-324 -408 409 0
324 408 409 0
410 -304 0
410 -409 0
304 409 -410 0
411 -64 0
411 43 0
64 -43 -411 0
412 151 0
412 -249 0
-151 249 -412 0
413 -412 0
413 83 0
412 -83 -413 0
-414 -248 0
-414 -60 0
248 60 414 0
-413 414 -415 0
413 -414 -415 0
-413 -414 415 0
413 414 415 0
416 -65 0
416 167 0
65 -167 -416 0
417 -415 0
417 -416 0
415 416 -417 0
418 64 0
418 -20 0
-64 20 -418 0
-419 -41 0
-419 -97 0
41 97 419 0
-199 288 -420 0
199 -288 -420 0
-199 -288 420 0
199 288 420 0
-421 -419 0
-421 420 0
419 -420 421 0
-418 421 -422 0
418 -421 -422 0
-418 -421 422 0
418 421 422 0
417 -422 -423 0
-417 422 -423 0
417 422 423 0
-417 -422 423 0
-411 423 -424 0
411 -423 -424 0
-411 -423 424 0
411 423 424 0
425 186 0
425 -159 0
-186 159 -425 0
426 424 0
426 425 0
-424 -425 -426 0
427 -159 0
427 68 0
159 -68 -427 0
-428 63 0
-428 427 0
-63 -427 428 0
426 428 -429 0
-426 -428 -429 0
426 -428 429 0
-426 428 429 0
430 410 0
430 -429 0
-410 429 -430 0
-431 293 0
-431 6 0
-293 -6 431 0
431 -151 -432 0
-431 151 -432 0
431 151 432 0
-431 -151 432 0
433 334 0
433 129 0
-334 -129 -433 0
434 -432 0
434 433 0
432 -433 -434 0
-435 -430 0
-435 -434 0
430 434 435 0
-287 -435 -436 0
287 435 -436 0
-287 435 436 0
287 -435 436 0
-437 -233 0
-437 436 0
233 -436 437 0
-242 -176 -420 46 0
-25 4 333 369 39 -377 -29 197 0
-118 -264 435 -397 361 -370 -396 0
-96 222 -323 0
-257 -350 -397 436 -298 -302 431 -367 0
410 154 -86 -148 -208 172 -191 145 -257 378 0
-5 -306 -218 398 67 -47 103 -281 0
-20 274 -143 357 -332 56 0
160 368 -113 -306 -120 377 -437 402 0
-382 151 -316 144 -338 -304 178 -390 169 -376 0
-109 338 54 295 0
-280 186 -322 -370 246 0
-365 -377 51 0
222 -156 -432 -265 -158 0
210 287 415 0
19 418 -384 0
-339 435 -6 -102 181 266 153 0
201 -435 -136 396 38 0
103 160 -400 -77 56 210 -131 -405 0
-58 -231 240 265 296 -92 232 247 120 -285 0
281 210 0
-374 -34 0
424 -47 -415 360 -176 378 334 343 135 192 0
-27 5 0
411 -327 48 -244 -403 156 68 384 -129 0
-367 282 284 0
-428 24 404 -1 0
131 327 -298 -12 -56 16 0
-177 419 249 0
-210 242 139 -196 -77 -322 -408 274 217 0
305 -189 -349 215 91 11 0
319 -378 325 -175 -53 -179 -42 0
-83 -208 0
-143 124 -334 -121 341 375 -196 -84 0
358 309 -116 117 -91 -393 -137 266 52 0
-37 -327 339 0
-422 219 -188 311 -156 0
-198 390 -134 -334 38 0
-240 130 -261 -75 189 121 118 117 -291 0
186 -123 -371 95 303 53 -266 393 -177 174 0
-57 -91 -324 0
338 -231 -251 0
-348 -365 251 133 409 0
356 8 -222 0
-63 418 149 383 -9 -319 -325 0
-241 -144 0
-284 -178 114 -340 -194 55 -80 140 309 0
-320 423 -40 -288 191 -321 0
339 379 -304 10 89 -380 57 0
323 -39 0
15 -173 -433 -139 294 35 213 263 0
-411 -146 -17 -255 47 -113 261 -73 -233 256 0
396 404 -76 73 -356 320 0
-316 -181 42 331 80 426 -31 -134 -277 -55 0
-107 7 -397 337 0
-192 -151 -64 11 -249 200 0
409 -195 -215 -133 -375 0
-142 -417 264 0
361 412 -57 339 -385 408 -320 -201 -225 160 0
116 -74 -303 -33 427 22 0
323 -371 119 180 -330 -32 -290 0
251 -198 -7 228 351 68 -188 0
381 431 0
307 60 155 0
117 -45 64 -334 0
359 34 0
-194 -360 0
-225 206 -433 38 203 -236 -19 155 -81 -106 0
8 -304 0
-76 238 -257 0
390 221 -59 -404 -144 -33 -197 0
-217 -403 11 -34 333 49 0
2 323 -333 -203 399 143 362 -349 -89 -140 0
-206 -217 271 0
-207 -345 0
-118 435 -135 188 48 0
120 -327 -405 -287 175 -33 0
35 324 -342 347 -270 0
326 306 -200 -237 0
260 -38 221 347 191 325 -399 317 247 -321 0
284 150 -165 -428 225 84 -127 -343 426 0
-147 -318 371 206 159 0
16 -64 14 0
102 -369 -137 57 33 -197 0
-104 219 -213 -270 -366 418 -402 -241 -346 -135 0
-337 -258 285 42 -216 220 131 -85 -82 0
334 110 185 -126 273 -120 337 -125 0
320 -403 0
-161 370 0
-144 -57 402 0
-280 152 55 -250 -48 -370 32 0
-305 -278 -107 -135 387 136 358 -58 0
-86 -217 349 253 -306 277 -125 -155 0
419 130 -233 -338 287 421 416 -278 261 -11 0
330 75 0
293 -195 -173 0
-256 354 0
-399 26 -108 345 -258 0
-332 190 11 -74 -17 -8 87 0
240 209 -151 0
169 345 173 423 -263 -418 115 0
-223 179 339 358 422 384 7 -45 -187 112 0
-97 275 -312 -19 338 0
-271 -225 -354 -243 409 -29 -190 345 0
265 -75 128 -123 312 -273 247 0
-63 329 151 -220 -295 -165 -125 0
131 -91 347 0
306 -343 -400 -390 308 301 0
-211 289 21 194 -273 128 -306 0
-133 -98 385 117 151 -178 -239 228 0
118 331 -113 0
-84 -55 82 341 278 87 0
424 -17 65 -305 75 -154 -25 0
-311 362 -186 300 0
273 304 302 -9 0
-284 -254 -60 -151 -253 158 133 228 -300 -209 0
299 -42 0
-337 48 283 -56 -370 -264 0
289 437 175 -434 248 -227 -158 396 0
418 -278 -234 -307 -11 -176 -62 -49 -137 -154 0
245 19 -156 409 -188 -47 29 228 0
-170 238 -380 -299 -374 -286 -45 421 -394 426 0
-129 -130 -136 348 382 210 -3 21 22 428 0
212 89 -72 13 -229 0
194 50 -373 0
140 179 149 -317 353 -336 -372 0
-104 55 388 213 0
-371 -56 0
-322 -346 233 329 -166 379 253 405 0
-46 -274 340 361 264 -291 96 -364 0
-246 -166 53 -289 336 110 -27 314 0
190 50 -307 -359 -213 -119 -373 -390 -414 92 0
-49 -420 -157 401 -346 0
237 375 155 -214 341 395 -125 32 0
120 178 94 -81 -20 -285 -406 -164 0
-289 427 134 318 374 -133 -98 0
145 211 205 -78 0
-196 161 180 -249 -227 416 0
-295 165 -217 412 -353 -228 56 -205 22 0
58 146 163 229 203 -111 395 6 0
-380 87 366 -40 198 144 -51 235 0
-206 393 378 -102 311 0
-364 295 217 200 -95 312 0
-146 89 45 434 305 415 -370 247 378 224 0
374 27 310 253 -371 -184 0
28 -234 0
103 -202 -345 -110 131 371 -426 -142 -396 -48 0
363 -29 264 0
219 -323 -78 0
-164 -136 402 -193 55 -192 272 10 0
387 -433 50 -336 0
196 66 -395 38 -71 240 8 -369 0
259 235 -327 -44 -349 -273 -211 -370 0
-175 119 140 0
78 -397 161 0
55 141 -120 -164 -219 384 -398 0
-306 194 -369 -70 0
322 115 -218 332 -190 -359 -302 0
327 -377 137 -254 249 -259 16 60 0
260 220 78 0
-155 156 58 -345 139 0
380 -216 1 -157 188 -350 -115 -54 0
407 68 26 226 -317 -220 0
-111 287 393 378 -278 -159 168 280 429 -48 0
333 407 0
-147 368 -261 0
51 8 301 299 -271 -83 146 0
249 -337 -180 -230 261 0
-107 -147 148 -31 -183 -350 128 -248 0
157 106 -45 0
110 -418 312 -335 210 -77 73 203 -379 239 0
67 -437 90 -234 64 -104 -372 -346 -246 274 0
427 -320 0
408 -66 -32 -422 267 248 0
347 97 86 87 0
-121 -235 -251 0
101 38 129 57 -264 -222 -69 29 156 0
-34 38 224 -35 -298 0
-318 341 383 -30 22 0
75 -2 62 -332 0
436 210 -305 31 187 45 -300 -410 0
271 -278 -110 307 0
52 -38 0
127 304 24 214 -186 -226 148 -283 0
63 300 399 -384 0
5 349 1 411 -141 297 85 0
350 -150 253 0
-75 240 0
177 -62 -296 -297 -25 262 -281 0
-3 -32 0
109 245 423 -276 31 -383 152 -364 330 0
218 -108 17 275 413 234 -208 0
403 69 -115 -198 -337 -74 286 -339 0
-17 -377 147 -94 110 7 416 -188 306 29 0
395 -172 -35 0
-258 -25 -426 0
325 401 -61 -217 287 329 0
-197 -386 156 -188 4 -243 -87 411 0
66 347 -15 -427 -384 -229 -307 -123 0
-90 358 -66 131 288 -176 0
29 -267 0
-89 -285 207 -103 98 -40 0
42 -183 195 0
-277 21 -374 -90 -238 -348 338 298 352 -190 0
252 100 -281 -256 -244 6 78 0
173 326 263 0
-350 101 -371 -116 342 229 386 -59 -230 197 0
-435 -6 -182 -102 64 219 -328 -116 228 0
168 434 201 0
-140 338 -194 185 0
-125 172 -408 182 -249 -129 -393 85 0
174 260 85 -125 0
-243 -202 -272 0
-107 -359 402 72 0
-332 -392 -334 353 412 -311 -157 432 2 0
-188 -317 66 -194 -89 -323 248 0
153 -317 83 0
298 -134 -147 -344 -133 319 -136 0
-434 268 -365 83 -39 423 -310 298 293 0
-185 418 -212 -34 0
-50 -183 328 135 296 0
55 130 52 -25 -108 57 98 31 -192 -103 0
-78 418 -297 -207 -10 -16 0
316 -71 143 -392 308 -406 -155 -404 -56 420 0
-266 146 254 -425 0
30 269 310 190 197 -312 -261 328 103 0
-214 -281 -169 139 60 231 -82 -386 0
-308 271 191 -353 0
-307 -161 0
425 300 64 -126 -124 284 41 275 -231 351 0
-43 -10 -364 -138 -49 304 -343 -52 -84 0
-26 -239 -54 385 -180 266 4 68 0
-384 26 -8 -324 -155 14 -374 0
-328 -108 383 -305 308 424 -109 -61 -288 0
71 292 302 57 -256 -415 -228 -58 -20 0
359 223 25 317 146 -387 0
290 120 -129 -394 427 -257 -294 153 -199 0
-356 99 -87 -150 -273 425 -266 360 -76 258 0
164 -386 -157 -382 270 -2 295 0
-169 102 -151 0
431 26 0
80 -348 0
-299 2 310 -75 383 -159 -180 394 232 380 0
129 211 -14 0
-257 -123 402 405 -269 -61 -234 -285 0
-301 -317 -307 136 67 14 -54 -186 -15 0
107 -263 -274 48 220 369 428 -181 264 89 0
437 0
